40
626.0 907.0
955.0 94.0
371.0 490.0
253.0 212.0
499.0 556.0
766.0 38.0
705.0 841.0
378.0 58.0
696.0 159.0
640.0 227.0
315.0 144.0
88.0 158.0
362.0 885.0
714.0 385.0
345.0 119.0
482.0 105.0
583.0 117.0
903.0 359.0
436.0 559.0
490.0 783.0
819.0 350.0
52.0 940.0
151.0 582.0
432.0 411.0
922.0 713.0
80.0 250.0
200.0 672.0
148.0 781.0
667.0 241.0
381.0 637.0
904.0 0.0
495.0 45.0
878.0 387.0
413.0 258.0
423.0 295.0
110.0 438.0
398.0 24.0
909.0 194.0
936.0 81.0
382.0 766.0